Route #1: 6 1 43 42 41 56 23 49 51
Route #2: 33 63 16 3 44 32
Route #3: 40 9 39 12 26
Route #4: 17 24 18 50 25 55 31
Route #5: 58 10 38 11 53
Route #6: 7 35 19 14 59 54 13
Route #7: 27 57 15 37 20 60 36 47
Route #8: 21 61 64 22 28 62
Route #9: 2 30 48 5 29 45
Route #10: 34 46 8 52 4
Cost 830